36826.1
46 26 133 65 128 81 24 98 66 147 143 68 49 83 29 146 115 20 33 55 11 8 28 91 137 77 116 80 87 13 142 25 96 94 149 104 86 103 54 114 5 123 52 45 7 40 73 134 102 131 130 92 139 32 70 106 19 4 37 124 47 36 127 17 41 135 50 58 99 101 3 112 117 111 119 67 113 53 0 21 69 76 121 78 10 44 62 60 140 22 74 88 100 51 108 43 93 14 38 105 79 90 59 12 89 72 2 107 16 136 34 85 15 110 148 145 95 118 48 35 63 109 71 84 126 56 120 9 31 97 122 27 141 64 23 75 138 129 144 30 42 125 39 18 1 6 61 82 132 57 
